WARNING: for repeatability, setting FPU to use double precision
============================[ Problem Statistics ]=============================
|                                                                             |
|  Number of variables:            50                                         |
|  Number of clauses:             218                                         |
|  Parse time:                   0.00 s                                       |
|                                                                             |
============================[ Search Statistics ]==============================
| Conflicts |          ORIGINAL         |          LEARNT          | Progress |
|           |    Vars  Clauses Literals |    Limit  Clauses Lit/Cl |          |
===============================================================================
===============================================================================
restarts              : 1
conflicts             : 12             (8785 /sec)
decisions             : 22             (0.00 % random) (16105 /sec)
propagations          : 215            (157394 /sec)
conflict literals     : 62             (1.59 % deleted)
Memory used           : 20.00 MB
CPU time              : 0.001366 s

SATISFIABLE
